\ This file has been generated by DOcplex
\ ENCODING=ISO-8859-1
\Problem name: AMC Quadratic Optimization

Minimize
 obj: x_0 + x_1 + x_2 + x_3 + x_4 + x_5 + y_0 + y_1 + y_2 + y_3 + y_4 + y_5
      + u_0 + u_1 + [ 2 x_0*y_2 + 2 x_0*y_4 + 2 x_1*y_1 + 2 x_1*y_3 + 2 x_3*y_0
      + 2 x_3*y_3 + 2 x_4*y_5 + 2 x_5*y_0 + 2 x_5*y_3 ]/2
Subject To
 Constraint: 39 x_0 + 39 x_5 + 14 y_2 + 89 y_5 + 100 u_0 = 581
 Constraint#1: 81 x_2 + 80 x_3 + 11 x_5 + 48 y_0 + 85 y_3 + 47 u_0 + 89 u_1 = 
               1561
 Constraint#2: 166 x_1 + 25 x_2 + 115 y_2 + 77 u_0 + 90 u_1 = 1528

Bounds
 0 <= x_0 <= 1
 0 <= x_1 <= 1
 0 <= x_2 <= 1
 0 <= x_3 <= 1
 0 <= x_4 <= 1
 0 <= x_5 <= 1
 0 <= y_0 <= 1
 0 <= y_1 <= 1
 0 <= y_2 <= 1
 0 <= y_3 <= 1
 0 <= y_4 <= 1
 0 <= y_5 <= 1

Binaries
 x_0 x_1 x_2 x_3 x_4 x_5 y_0 y_1 y_2 y_3 y_4 y_5
End
